798 918 413 533
868 988 376 496
784 904 423 543
683 803 378 498
944 1064 408 528
647 767 377 497
827 947 360 444
797 917 372 492
819 939 438 558
895 1015 387 507
797 917 395 515
735 855 375 495
736 856 422 542
763 883 427 547
803 923 401 521
763 883 418 538
837 957 423 543
802 922 386 506
862 982 360 473
828 948 382 502
